<number of tasks>
50

<cycle time>
1000

<order strength>
0.198


<task times>
1 512
2 361
3 529
4 523
5 508
6 520
7 580
8 639
9 463
10 555
11 533
12 499
13 457
14 535
15 333
16 444
17 429
18 487
19 606
20 241
21 462
22 453
23 783
24 772
25 357
26 527
27 507
28 476
29 585
30 478
31 359
32 532
33 401
34 371
35 407
36 692
37 501
38 459
39 675
40 281
41 487
42 469
43 541
44 740
45 588
46 514
47 545
48 499
49 472
50 285

<precedence relations>
1,25
2,25
3,13
4,15
5,14
6,11
9,12
9,16
11,25
12,25
13,20
14,19
15,22
16,17
16,18
16,21
16,23
16,24
17,25
18,25
19,27
21,26
21,29
22,28
24,30
24,45
25,31
25,32
25,33
25,34
25,35
25,36
25,39
25,46
26,37
27,38
28,40
30,46
31,43
37,42
38,41
40,46
41,44
42,45
42,46
44,49
45,48
46,47
46,50

<end>
